p wcnf 165 195 196 
1 -80 86 0 
1 -8 -24 0 
1 119 56 0 
1 83 148 0 
1 55 -95 0 
1 106 86 0 
1 -31 20 0 
1 -125 27 0 
1 -120 -152 0 
1 82 4 0 
1 163 63 0 
1 11 86 0 
1 -85 -37 0 
1 -53 -66 0 
1 -127 -63 0 
1 -5 -157 0 
1 -18 -33 0 
1 23 -69 0 
1 -78 117 0 
1 11 -4 0 
1 86 -140 0 
1 -20 115 0 
1 -80 15 0 
1 51 38 0 
1 149 -70 0 
1 -70 -110 0 
1 59 67 0 
1 -162 47 0 
1 -148 59 0 
1 10 -162 0 
1 -89 159 0 
1 20 -80 0 
1 -123 -33 0 
1 88 16 0 
1 107 156 0 
1 87 98 0 
1 -52 34 0 
1 -125 -38 0 
1 -129 14 0 
1 157 148 0 
1 3 114 0 
1 23 -116 0 
1 82 -20 0 
1 -26 73 0 
1 72 -136 0 
1 36 124 0 
1 -122 6 0 
1 105 21 0 
1 -140 81 0 
1 19 164 0 
1 33 22 0 
1 -3 -9 0 
1 97 34 0 
1 -61 -108 0 
1 5 -10 0 
1 -64 79 0 
1 -127 -95 0 
1 88 121 0 
1 7 53 0 
1 -56 -152 0 
1 73 -62 0 
1 -152 69 0 
1 -165 -20 0 
1 85 -155 0 
1 146 14 0 
1 -121 135 0 
1 5 -96 0 
1 -4 35 0 
1 -58 -34 0 
1 6 103 0 
1 126 -163 0 
1 -44 -101 0 
1 -160 -59 0 
1 -7 -38 0 
1 -1 16 0 
1 129 -34 0 
1 73 138 0 
1 89 -45 0 
1 122 -69 0 
1 -93 129 0 
1 26 122 0 
1 45 41 0 
1 -45 76 0 
1 -115 -99 0 
1 -19 71 0 
1 -19 74 0 
1 -36 58 0 
1 57 -32 0 
1 -69 -150 0 
1 66 -38 0 
1 130 -23 0 
1 -132 65 0 
1 124 145 0 
1 -85 33 0 
1 28 147 0 
1 -18 -90 0 
1 -93 -119 0 
1 92 -99 0 
1 59 71 0 
1 111 -163 0 
1 -85 153 0 
1 -71 38 0 
1 66 -80 0 
1 46 -139 0 
1 149 142 0 
1 -88 102 0 
1 -113 2 0 
1 89 -108 0 
1 160 65 0 
1 116 -147 0 
1 -142 -130 0 
1 128 -152 0 
1 -118 -161 0 
1 135 26 0 
1 94 101 0 
1 -118 98 0 
1 153 140 0 
1 -153 83 0 
1 -43 -79 0 
1 47 -112 0 
1 -157 105 0 
1 111 -160 0 
1 136 -165 0 
1 152 -154 0 
1 -120 46 0 
1 -91 -57 0 
1 -61 165 0 
1 108 85 0 
1 71 -132 0 
1 41 133 0 
1 77 -100 0 
1 74 -88 0 
1 -94 -87 0 
1 129 125 0 
1 110 60 0 
1 -46 -120 0 
1 -74 12 0 
1 -134 -114 0 
1 -122 86 0 
1 -156 -12 0 
1 -153 61 0 
1 -124 -68 0 
1 -132 123 0 
1 -81 -36 0 
1 125 163 0 
1 135 -12 0 
1 64 81 0 
1 109 -87 0 
1 165 44 0 
1 31 -165 0 
1 -14 107 0 
1 -84 -81 0 
1 -50 38 0 
1 -127 88 0 
1 -91 118 0 
1 -79 -21 0 
1 18 -12 0 
1 -64 -118 0 
1 -125 -105 0 
1 -43 31 0 
1 -32 64 0 
1 -46 157 0 
1 -75 -12 0 
1 -126 158 0 
1 159 -78 0 
1 65 154 0 
1 -86 -23 0 
1 2 -38 0 
1 -111 117 0 
1 -81 -133 0 
1 -117 -1 0 
1 3 -150 0 
1 -40 20 0 
1 -132 149 0 
1 67 83 0 
1 -162 73 0 
1 67 51 0 
1 49 -53 0 
1 151 122 0 
1 121 -59 0 
1 -123 67 0 
1 -68 -55 0 
1 -143 40 0 
1 -79 99 0 
1 -110 34 0 
1 -61 114 0 
1 114 -20 0 
1 13 -157 0 
1 -48 83 0 
1 28 -114 0 
1 -97 105 0 
1 -117 88 0 
1 45 32 0 
1 133 8 0 
1 78 -56 0 
